p cnf 41 30
6 25 27 0
21 -22 33 0
7 -15 -1 0
22 -23 15 0
-17 -1 -23 0
19 28 -27 0
-13 11 30 0
5 9 -39 0
10 -8 33 0
-21 -10 36 0
31 -6 -1 0
8 4 -5 0
-21 36 -21 0
22 -32 -17 0
27 16 3 0
7 -3 16 0
29 37 28 0
33 -9 19 0
-10 17 18 0
-7 -9 -10 0
25 12 37 0
26 16 13 0
14 -11 -16 0
-41 -29 15 0
23 -30 36 0
7 33 28 0
-32 28 19 0
-17 4 -36 0
2 4 10 0
-10 19 -39 0
